NAME : eil51
COMMENT : 51-city problem (Christofides/Eilon)
TYPE : TSP
DIMENSION : 51
EDGE_WEIGHT_TYPE : EUC_2D
NODE_COORD_SECTION
1 37.00 52.00
2 49.00 49.00
3 52.00 64.00
4 20.00 26.00
5 40.00 30.00
6 21.00 47.00
7 17.00 63.00
8 31.00 62.00
9 52.00 33.00
10 51.00 21.00
11 42.00 41.00
12 31.00 32.00
13 5.00 25.00
14 12.00 42.00
15 36.00 16.00
16 52.00 41.00
17 27.00 23.00
18 17.00 33.00
19 13.00 13.00
20 57.00 58.00
21 62.00 42.00
22 42.00 57.00
23 16.00 57.00
24 8.00 52.00
25 7.00 38.00
26 27.00 68.00
27 30.00 48.00
28 43.00 67.00
29 58.00 48.00
30 58.00 27.00
31 37.00 69.00
32 38.00 46.00
33 46.00 10.00
34 61.00 33.00
35 62.00 63.00
36 63.00 69.00
37 32.00 22.00
38 45.00 35.00
39 59.00 15.00
40 5.00 6.00
41 10.00 17.00
42 21.00 10.00
43 5.00 64.00
44 30.00 15.00
45 39.00 10.00
46 32.00 39.00
47 25.00 32.00
48 25.00 55.00
49 48.00 28.00
50 56.00 37.00
51 30.00 40.00
EOF
